
n_res = 6;
rcap = [201, 166, 164, 176, 727, 768];
rtype = [1, 1, 1, 1, 2, 2];
n_tasks = 50;
modes =  [{1, 2, 3}, {4, 5, 6}, {7, 8, 9}, {10, 11, 12}, {13, 14, 15}, {16, 17, 18}, {19, 20, 21}, {22, 23, 24}, {25, 26, 27}, {28, 29, 30}, {31, 32, 33}, {34, 35, 36}, {37, 38, 39}, {40, 41, 42}, {43, 44, 45}, {46, 47, 48}, {49, 50, 51}, {52, 53, 54}, {55, 56, 57}, {58, 59, 60}, {61, 62, 63}, {64, 65, 66}, {67, 68, 69}, {70, 71, 72}, {73, 74, 75}, {76, 77, 78}, {79, 80, 81}, {82, 83, 84}, {85, 86, 87}, {88, 89, 90}, {91, 92, 93}, {94, 95, 96}, {97, 98, 99}, {100, 101, 102}, {103, 104, 105}, {106, 107, 108}, {109, 110, 111}, {112, 113, 114}, {115, 116, 117}, {118, 119, 120}, {121, 122, 123}, {124, 125, 126}, {127, 128, 129}, {130, 131, 132}, {133, 134, 135}, {136, 137, 138}, {139, 140, 141}, {142, 143, 144}, {145, 146, 147}, {148, 149, 150}];
succ =  [{22, 16, 15, 12}, {50, 49, 46, 42, 31, 23, 22, 21, 14}, {48, 46, 44, 43, 40, 32, 31, 29, 26, 25, 18}, {32, 29, 22, 18, 8}, {47, 45, 44, 43, 30, 29, 26, 25, 24, 21}, {46, 43, 41, 34, 32, 25, 21, 17}, {47, 46, 45, 42, 38, 32, 31, 27, 26, 21}, {48, 46, 45, 43, 42, 40, 39, 38, 37, 31, 24}, {46, 43, 42, 41, 40, 38, 37, 35, 20}, {49, 45, 44, 43, 42, 39, 37, 36, 34, 24}, {46, 45, 44, 43, 41, 40, 39, 38, 35, 26}, {43, 38, 31, 30, 25, 21}, {46, 45, 42, 40, 38, 37, 36, 24}, {47, 44, 41, 40, 38, 37, 36, 35, 34, 33}, {49, 47, 45, 43, 42, 41, 40, 38, 34, 33}, {47, 44, 41, 39, 38, 37, 34, 33}, {47, 44, 35, 29}, {39, 36, 24}, {42, 40, 38, 36, 33}, {39, 36, 33, 31}, {40, 39, 37, 35}, {43, 37, 35, 34}, {45, 36, 35, 34}, {41, 35, 33}, {37, 36, 33}, {37, 36, 34}, {44, 36, 34}, {48, 46, 33}, {42, 38}, {39, 35}, {34}, {33}, {}, {}, {}, {}, {}, {}, {}, {}, {}, {}, {}, {}, {}, {}, {}, {}, {}, {}];
n_opt = 150;
dur = [1, 2, 13, 23, 29, 30, 15, 19, 23, 1, 9, 16, 7, 13, 14, 10, 23, 29, 7, 8, 13, 6, 12, 15, 6, 7, 13, 12, 28, 29, 13, 19, 24, 11, 23, 29, 4, 5, 10, 13, 14, 15, 9, 13, 19, 7, 26, 28, 16, 17, 20, 2, 14, 17, 4, 21, 22, 4, 10, 23, 4, 7, 9, 1, 6, 15, 1, 4, 19, 3, 5, 21, 9, 10, 30, 5, 8, 11, 14, 15, 22, 8, 15, 19, 15, 28, 29, 14, 21, 28, 1, 14, 30, 11, 15, 25, 1, 5, 21, 11, 18, 23, 14, 17, 26, 18, 20, 24, 1, 3, 18, 11, 13, 26, 4, 26, 27, 1, 26, 29, 3, 20, 25, 4, 12, 17, 15, 19, 24, 2, 9, 10, 1, 4, 30, 6, 8, 23, 7, 14, 23, 11, 13, 23, 12, 18, 19, 20, 23, 26];
rreq = [|2, 2, 2, 4, 3, 2, 3, 3, 3, 4, 3, 3, 3, 2, 1, 5, 4, 4, 1, 1, 1, 2, 2, 1, 1, 1, 1, 5, 4, 4, 4, 3, 1, 1, 1, 1, 4, 3, 3, 5, 4, 3, 5, 5, 5, 2, 2, 2, 5, 3, 3, 3, 3, 1, 4, 4, 4, 2, 2, 2, 2, 2, 2, 3, 3, 2, 4, 4, 3, 2, 2, 1, 3, 3, 2, 4, 2, 1, 3, 2, 1, 4, 4, 4, 3, 2, 1, 1, 1, 1, 3, 2, 1, 4, 4, 3, 4, 4, 3, 3, 3, 3, 3, 3, 2, 3, 1, 1, 3, 2, 1, 3, 1, 1, 1, 1, 1, 4, 4, 4, 2, 1, 1, 3, 2, 2, 2, 2, 2, 4, 3, 3, 4, 4, 3, 2, 1, 1, 1, 1, 1, 2, 2, 2, 4, 4, 4, 3, 3, 3
 |5, 5, 5, 2, 2, 2, 3, 2, 2, 1, 1, 1, 5, 2, 1, 3, 3, 1, 3, 3, 3, 1, 1, 1, 3, 3, 3, 1, 1, 1, 2, 2, 2, 5, 5, 5, 3, 3, 1, 5, 4, 3, 2, 1, 1, 4, 3, 3, 5, 3, 3, 4, 3, 3, 5, 4, 4, 4, 4, 4, 3, 3, 3, 2, 1, 1, 1, 1, 1, 4, 2, 2, 4, 2, 2, 4, 3, 3, 2, 2, 2, 3, 1, 1, 4, 4, 4, 4, 3, 2, 4, 4, 3, 3, 3, 3, 5, 2, 1, 4, 2, 2, 2, 2, 2, 2, 2, 1, 4, 4, 4, 3, 3, 2, 5, 2, 2, 2, 2, 2, 2, 2, 2, 5, 5, 5, 4, 4, 4, 4, 4, 2, 4, 3, 3, 2, 2, 2, 4, 3, 3, 3, 2, 1, 4, 4, 4, 3, 1, 1
 |4, 3, 3, 5, 2, 2, 1, 1, 1, 4, 4, 2, 5, 2, 2, 4, 2, 2, 2, 1, 1, 3, 2, 2, 3, 3, 2, 2, 2, 2, 5, 2, 2, 5, 5, 5, 2, 2, 1, 3, 2, 1, 2, 1, 1, 3, 3, 3, 3, 3, 1, 1, 1, 1, 5, 4, 4, 4, 3, 3, 5, 3, 2, 3, 2, 2, 2, 1, 1, 3, 3, 3, 5, 3, 3, 5, 4, 4, 4, 3, 2, 5, 5, 5, 4, 4, 4, 1, 1, 1, 1, 1, 1, 5, 3, 2, 4, 3, 2, 3, 2, 2, 4, 3, 1, 2, 1, 1, 2, 2, 2, 4, 3, 3, 4, 4, 4, 1, 1, 1, 3, 3, 3, 2, 2, 2, 3, 3, 2, 3, 1, 1, 2, 1, 1, 2, 1, 1, 4, 3, 3, 4, 4, 3, 3, 3, 3, 2, 2, 2
 |4, 4, 4, 5, 3, 1, 1, 1, 1, 4, 3, 2, 5, 5, 5, 4, 3, 1, 5, 4, 2, 4, 4, 4, 2, 1, 1, 4, 3, 3, 4, 4, 4, 4, 4, 4, 4, 3, 2, 5, 5, 5, 5, 4, 3, 2, 2, 1, 1, 1, 1, 4, 4, 4, 2, 2, 1, 4, 4, 3, 2, 1, 1, 3, 2, 1, 4, 3, 3, 4, 2, 1, 4, 2, 2, 3, 3, 2, 4, 3, 3, 3, 2, 2, 4, 4, 4, 1, 1, 1, 4, 4, 4, 3, 2, 1, 4, 3, 3, 5, 3, 3, 5, 4, 3, 5, 3, 2, 3, 2, 2, 4, 3, 3, 4, 3, 3, 3, 3, 3, 4, 2, 2, 1, 1, 1, 4, 3, 3, 1, 1, 1, 5, 5, 5, 5, 3, 3, 3, 2, 2, 1, 1, 1, 4, 2, 2, 3, 3, 3
 |28, 16, 9, 21, 16, 15, 4, 2, 1, 12, 10, 8, 15, 13, 7, 13, 11, 8, 6, 4, 3, 20, 19, 18, 17, 12, 2, 17, 15, 15, 29, 24, 17, 29, 26, 21, 29, 19, 17, 16, 15, 15, 21, 20, 19, 16, 9, 7, 17, 13, 13, 23, 17, 13, 8, 8, 8, 25, 20, 9, 19, 19, 15, 12, 10, 10, 13, 11, 10, 26, 25, 25, 16, 13, 12, 14, 8, 4, 12, 12, 12, 16, 10, 4, 18, 12, 6, 22, 19, 12, 18, 14, 9, 19, 16, 12, 25, 20, 18, 28, 22, 14, 14, 12, 11, 18, 18, 16, 17, 8, 5, 14, 11, 10, 3, 3, 3, 16, 13, 8, 21, 13, 7, 25, 22, 16, 6, 5, 3, 20, 18, 10, 17, 14, 13, 18, 11, 9, 27, 24, 21, 11, 10, 10, 27, 26, 25, 15, 12, 6
 |8, 6, 2, 21, 15, 13, 13, 13, 13, 16, 13, 10, 23, 15, 13, 21, 15, 15, 11, 8, 7, 17, 16, 14, 18, 12, 10, 19, 11, 10, 26, 20, 19, 8, 7, 6, 11, 9, 8, 29, 29, 29, 28, 25, 23, 14, 12, 10, 13, 10, 9, 11, 8, 2, 27, 26, 25, 17, 17, 14, 27, 24, 23, 21, 15, 15, 8, 7, 6, 27, 22, 19, 20, 12, 10, 17, 16, 16, 22, 17, 12, 12, 10, 5, 12, 8, 7, 24, 21, 16, 15, 14, 13, 17, 15, 7, 25, 12, 8, 28, 26, 22, 20, 9, 3, 26, 19, 6, 4, 3, 3, 24, 17, 11, 14, 14, 13, 16, 16, 16, 23, 22, 21, 22, 15, 5, 10, 5, 4, 21, 17, 13, 23, 22, 21, 27, 19, 17, 26, 24, 18, 10, 8, 2, 16, 16, 16, 20, 11, 9|];